p edge 100 2009
e 1 6
e 1 7
e 1 9
e 1 10
e 1 12
e 1 14
e 1 15
e 1 19
e 1 21
e 1 22
e 1 24
e 1 25
e 1 27
e 1 30
e 1 32
e 1 33
e 1 38
e 1 44
e 1 45
e 1 48
e 1 63
e 1 64
e 1 65
e 1 75
e 1 77
e 1 79
e 1 81
e 1 84
e 1 85
e 1 87
e 1 88
e 1 89
e 1 90
e 1 92
e 1 99
e 2 3
e 2 4
e 2 5
e 2 8
e 2 14
e 2 15
e 2 16
e 2 19
e 2 20
e 2 22
e 2 26
e 2 27
e 2 28
e 2 30
e 2 35
e 2 36
e 2 37
e 2 38
e 2 39
e 2 43
e 2 44
e 2 45
e 2 46
e 2 50
e 2 55
e 2 57
e 2 59
e 2 60
e 2 65
e 2 68
e 2 72
e 2 73
e 2 74
e 2 79
e 2 80
e 2 84
e 2 85
e 2 86
e 2 92
e 2 94
e 2 97
e 2 100
e 3 6
e 3 8
e 3 13
e 3 14
e 3 15
e 3 17
e 3 18
e 3 19
e 3 25
e 3 26
e 3 28
e 3 30
e 3 31
e 3 35
e 3 36
e 3 39
e 3 42
e 3 45
e 3 46
e 3 47
e 3 48
e 3 50
e 3 57
e 3 58
e 3 59
e 3 60
e 3 64
e 3 66
e 3 67
e 3 75
e 3 77
e 3 80
e 3 81
e 3 82
e 3 87
e 3 90
e 3 93
e 3 94
e 3 97
e 3 99
e 4 5
e 4 7
e 4 10
e 4 11
e 4 13
e 4 14
e 4 16
e 4 18
e 4 21
e 4 22
e 4 28
e 4 29
e 4 30
e 4 32
e 4 43
e 4 46
e 4 48
e 4 51
e 4 52
e 4 53
e 4 54
e 4 56
e 4 57
e 4 60
e 4 64
e 4 70
e 4 71
e 4 72
e 4 74
e 4 76
e 4 78
e 4 80
e 4 83
e 4 84
e 4 85
e 4 86
e 4 88
e 4 89
e 4 91
e 4 95
e 4 100
e 5 6
e 5 8
e 5 20
e 5 21
e 5 22
e 5 23
e 5 24
e 5 30
e 5 31
e 5 33
e 5 35
e 5 39
e 5 41
e 5 45
e 5 46
e 5 47
e 5 48
e 5 49
e 5 50
e 5 56
e 5 65
e 5 66
e 5 68
e 5 71
e 5 73
e 5 76
e 5 79
e 5 80
e 5 82
e 5 86
e 5 90
e 5 91
e 5 94
e 5 99
e 5 100
e 6 9
e 6 11
e 6 13
e 6 15
e 6 16
e 6 17
e 6 18
e 6 20
e 6 21
e 6 24
e 6 26
e 6 27
e 6 31
e 6 35
e 6 48
e 6 49
e 6 53
e 6 62
e 6 63
e 6 66
e 6 67
e 6 69
e 6 70
e 6 77
e 6 78
e 6 86
e 6 90
e 6 92
e 6 93
e 6 94
e 6 95
e 6 96
e 6 98
e 7 9
e 7 12
e 7 18
e 7 19
e 7 22
e 7 23
e 7 24
e 7 25
e 7 29
e 7 30
e 7 33
e 7 36
e 7 37
e 7 38
e 7 39
e 7 44
e 7 45
e 7 49
e 7 50
e 7 53
e 7 56
e 7 57
e 7 62
e 7 63
e 7 73
e 7 78
e 7 79
e 7 81
e 7 82
e 7 84
e 7 89
e 7 97
e 8 11
e 8 13
e 8 15
e 8 19
e 8 20
e 8 21
e 8 25
e 8 27
e 8 31
e 8 33
e 8 34
e 8 36
e 8 37
e 8 38
e 8 40
e 8 41
e 8 42
e 8 44
e 8 45
e 8 49
e 8 51
e 8 54
e 8 56
e 8 60
e 8 63
e 8 64
e 8 71
e 8 78
e 8 80
e 8 82
e 8 83
e 8 84
e 8 85
e 8 89
e 8 92
e 8 93
e 8 96
e 9 13
e 9 18
e 9 20
e 9 21
e 9 22
e 9 23
e 9 27
e 9 30
e 9 34
e 9 36
e 9 39
e 9 42
e 9 43
e 9 45
e 9 46
e 9 48
e 9 50
e 9 52
e 9 53
e 9 55
e 9 59
e 9 60
e 9 67
e 9 68
e 9 70
e 9 73
e 9 75
e 9 76
e 9 77
e 9 78
e 9 87
e 9 88
e 9 92
e 9 93
e 9 96
e 9 97
e 9 100
e 10 19
e 10 24
e 10 25
e 10 28
e 10 29
e 10 30
e 10 31
e 10 34
e 10 37
e 10 39
e 10 44
e 10 45
e 10 47
e 10 49
e 10 57
e 10 59
e 10 60
e 10 62
e 10 65
e 10 66
e 10 67
e 10 68
e 10 72
e 10 74
e 10 76
e 10 85
e 10 86
e 10 88
e 10 90
e 10 91
e 10 92
e 10 93
e 10 95
e 10 97
e 11 14
e 11 15
e 11 16
e 11 20
e 11 22
e 11 24
e 11 29
e 11 30
e 11 34
e 11 35
e 11 38
e 11 39
e 11 41
e 11 43
e 11 44
e 11 48
e 11 51
e 11 55
e 11 56
e 11 58
e 11 60
e 11 62
e 11 63
e 11 68
e 11 69
e 11 73
e 11 74
e 11 77
e 11 80
e 11 84
e 11 87
e 11 90
e 11 92
e 11 94
e 11 96
e 11 97
e 11 99
e 12 18
e 12 19
e 12 24
e 12 26
e 12 31
e 12 32
e 12 33
e 12 35
e 12 36
e 12 37
e 12 39
e 12 41
e 12 45
e 12 48
e 12 52
e 12 53
e 12 54
e 12 55
e 12 57
e 12 59
e 12 62
e 12 64
e 12 66
e 12 67
e 12 68
e 12 69
e 12 70
e 12 76
e 12 78
e 12 79
e 12 80
e 12 89
e 12 92
e 12 94
e 13 16
e 13 17
e 13 19
e 13 21
e 13 25
e 13 26
e 13 30
e 13 32
e 13 33
e 13 34
e 13 35
e 13 37
e 13 43
e 13 45
e 13 48
e 13 49
e 13 55
e 13 56
e 13 57
e 13 64
e 13 65
e 13 66
e 13 76
e 13 78
e 13 82
e 13 83
e 13 86
e 13 88
e 13 93
e 13 96
e 13 99
e 14 15
e 14 17
e 14 21
e 14 23
e 14 25
e 14 29
e 14 38
e 14 44
e 14 45
e 14 49
e 14 51
e 14 52
e 14 56
e 14 58
e 14 60
e 14 61
e 14 62
e 14 63
e 14 66
e 14 68
e 14 70
e 14 75
e 14 76
e 14 77
e 14 79
e 14 80
e 14 89
e 14 92
e 14 94
e 14 96
e 14 99
e 14 100
e 15 16
e 15 20
e 15 21
e 15 22
e 15 23
e 15 24
e 15 25
e 15 26
e 15 29
e 15 30
e 15 33
e 15 34
e 15 36
e 15 37
e 15 38
e 15 39
e 15 43
e 15 44
e 15 46
e 15 47
e 15 48
e 15 49
e 15 51
e 15 52
e 15 53
e 15 55
e 15 59
e 15 63
e 15 67
e 15 70
e 15 73
e 15 74
e 15 76
e 15 79
e 15 80
e 15 81
e 15 82
e 15 86
e 15 88
e 15 90
e 15 95
e 15 96
e 15 97
e 15 98
e 15 100
e 16 20
e 16 23
e 16 27
e 16 29
e 16 33
e 16 35
e 16 38
e 16 39
e 16 40
e 16 42
e 16 43
e 16 48
e 16 50
e 16 51
e 16 53
e 16 54
e 16 55
e 16 59
e 16 60
e 16 61
e 16 65
e 16 67
e 16 69
e 16 70
e 16 74
e 16 76
e 16 77
e 16 80
e 16 81
e 16 85
e 16 86
e 16 93
e 16 96
e 16 97
e 16 98
e 17 18
e 17 20
e 17 21
e 17 22
e 17 24
e 17 29
e 17 33
e 17 34
e 17 38
e 17 41
e 17 44
e 17 47
e 17 50
e 17 57
e 17 59
e 17 60
e 17 63
e 17 67
e 17 74
e 17 75
e 17 76
e 17 77
e 17 79
e 17 81
e 17 82
e 17 83
e 17 84
e 17 85
e 17 88
e 17 89
e 17 91
e 17 92
e 17 93
e 17 97
e 17 100
e 18 21
e 18 25
e 18 27
e 18 31
e 18 33
e 18 34
e 18 37
e 18 38
e 18 39
e 18 41
e 18 42
e 18 45
e 18 48
e 18 49
e 18 56
e 18 58
e 18 61
e 18 62
e 18 63
e 18 64
e 18 65
e 18 70
e 18 71
e 18 72
e 18 73
e 18 74
e 18 75
e 18 77
e 18 78
e 18 79
e 18 81
e 18 84
e 18 85
e 18 86
e 18 87
e 18 95
e 18 97
e 18 99
e 18 100
e 19 20
e 19 21
e 19 22
e 19 27
e 19 30
e 19 38
e 19 40
e 19 41
e 19 42
e 19 48
e 19 49
e 19 53
e 19 54
e 19 56
e 19 62
e 19 70
e 19 71
e 19 73
e 19 77
e 19 84
e 19 89
e 19 94
e 19 98
e 19 100
e 20 25
e 20 26
e 20 28
e 20 29
e 20 31
e 20 32
e 20 39
e 20 40
e 20 42
e 20 43
e 20 49
e 20 50
e 20 51
e 20 56
e 20 65
e 20 67
e 20 68
e 20 73
e 20 74
e 20 75
e 20 76
e 20 77
e 20 78
e 20 79
e 20 80
e 20 81
e 20 82
e 20 86
e 20 87
e 20 90
e 20 92
e 20 93
e 20 98
e 20 99
e 21 22
e 21 26
e 21 27
e 21 28
e 21 30
e 21 35
e 21 36
e 21 37
e 21 38
e 21 40
e 21 43
e 21 46
e 21 51
e 21 52
e 21 54
e 21 55
e 21 57
e 21 60
e 21 64
e 21 67
e 21 68
e 21 69
e 21 70
e 21 72
e 21 77
e 21 78
e 21 81
e 21 87
e 21 88
e 21 90
e 21 91
e 21 93
e 21 97
e 21 100
e 22 25
e 22 30
e 22 31
e 22 32
e 22 33
e 22 37
e 22 38
e 22 39
e 22 40
e 22 44
e 22 45
e 22 52
e 22 57
e 22 58
e 22 62
e 22 64
e 22 66
e 22 68
e 22 69
e 22 71
e 22 72
e 22 74
e 22 84
e 22 85
e 22 86
e 22 88
e 22 90
e 22 91
e 22 92
e 22 93
e 22 99
e 23 28
e 23 29
e 23 31
e 23 34
e 23 35
e 23 36
e 23 37
e 23 39
e 23 45
e 23 48
e 23 51
e 23 52
e 23 53
e 23 54
e 23 55
e 23 56
e 23 58
e 23 62
e 23 64
e 23 65
e 23 67
e 23 68
e 23 72
e 23 74
e 23 79
e 23 80
e 23 83
e 23 87
e 23 88
e 23 89
e 23 90
e 23 91
e 23 93
e 23 94
e 23 96
e 23 99
e 24 25
e 24 29
e 24 35
e 24 36
e 24 37
e 24 40
e 24 42
e 24 45
e 24 47
e 24 48
e 24 52
e 24 61
e 24 62
e 24 63
e 24 66
e 24 68
e 24 70
e 24 71
e 24 73
e 24 74
e 24 80
e 24 81
e 24 82
e 24 83
e 24 84
e 24 86
e 24 87
e 24 89
e 24 90
e 24 91
e 24 92
e 24 93
e 24 96
e 24 98
e 24 99
e 25 26
e 25 27
e 25 28
e 25 30
e 25 34
e 25 35
e 25 36
e 25 38
e 25 40
e 25 41
e 25 43
e 25 45
e 25 46
e 25 47
e 25 48
e 25 49
e 25 52
e 25 53
e 25 56
e 25 57
e 25 58
e 25 59
e 25 60
e 25 61
e 25 63
e 25 64
e 25 66
e 25 67
e 25 68
e 25 69
e 25 70
e 25 71
e 25 74
e 25 75
e 25 77
e 25 79
e 25 80
e 25 82
e 25 84
e 25 87
e 25 88
e 25 92
e 25 93
e 25 94
e 26 28
e 26 30
e 26 31
e 26 34
e 26 37
e 26 38
e 26 39
e 26 40
e 26 44
e 26 46
e 26 47
e 26 49
e 26 51
e 26 52
e 26 57
e 26 60
e 26 66
e 26 73
e 26 75
e 26 80
e 26 82
e 26 86
e 26 88
e 26 90
e 26 92
e 26 95
e 26 96
e 27 28
e 27 29
e 27 31
e 27 35
e 27 38
e 27 40
e 27 41
e 27 42
e 27 44
e 27 46
e 27 48
e 27 50
e 27 58
e 27 59
e 27 60
e 27 61
e 27 62
e 27 67
e 27 68
e 27 70
e 27 71
e 27 79
e 27 81
e 27 85
e 27 88
e 27 90
e 27 99
e 27 100
e 28 30
e 28 40
e 28 41
e 28 45
e 28 46
e 28 50
e 28 51
e 28 52
e 28 53
e 28 54
e 28 56
e 28 57
e 28 59
e 28 60
e 28 62
e 28 63
e 28 65
e 28 66
e 28 68
e 28 70
e 28 75
e 28 77
e 28 79
e 28 82
e 28 86
e 28 87
e 28 92
e 28 93
e 28 94
e 28 95
e 29 31
e 29 34
e 29 37
e 29 43
e 29 44
e 29 45
e 29 46
e 29 47
e 29 55
e 29 61
e 29 62
e 29 63
e 29 64
e 29 65
e 29 68
e 29 73
e 29 76
e 29 80
e 29 82
e 29 83
e 29 84
e 29 86
e 29 87
e 29 92
e 29 95
e 29 99
e 30 31
e 30 33
e 30 35
e 30 39
e 30 40
e 30 41
e 30 42
e 30 43
e 30 45
e 30 49
e 30 50
e 30 51
e 30 52
e 30 56
e 30 57
e 30 58
e 30 61
e 30 69
e 30 74
e 30 77
e 30 78
e 30 80
e 30 82
e 30 83
e 30 85
e 30 86
e 30 89
e 30 92
e 30 98
e 30 99
e 30 100
e 31 32
e 31 33
e 31 34
e 31 37
e 31 39
e 31 40
e 31 42
e 31 43
e 31 44
e 31 45
e 31 46
e 31 60
e 31 62
e 31 64
e 31 67
e 31 70
e 31 71
e 31 72
e 31 75
e 31 77
e 31 81
e 31 83
e 31 84
e 31 86
e 31 89
e 31 90
e 31 91
e 31 94
e 31 100
e 32 34
e 32 35
e 32 37
e 32 39
e 32 46
e 32 53
e 32 54
e 32 56
e 32 60
e 32 64
e 32 65
e 32 67
e 32 69
e 32 71
e 32 72
e 32 73
e 32 74
e 32 76
e 32 78
e 32 85
e 32 90
e 32 93
e 32 97
e 33 34
e 33 35
e 33 38
e 33 40
e 33 47
e 33 48
e 33 49
e 33 53
e 33 54
e 33 57
e 33 61
e 33 63
e 33 64
e 33 67
e 33 68
e 33 71
e 33 78
e 33 86
e 33 88
e 33 89
e 33 90
e 33 91
e 33 99
e 34 39
e 34 42
e 34 51
e 34 53
e 34 54
e 34 55
e 34 56
e 34 67
e 34 70
e 34 71
e 34 78
e 34 80
e 34 83
e 34 84
e 34 86
e 34 88
e 34 91
e 34 93
e 34 94
e 34 97
e 34 99
e 34 100
e 35 37
e 35 39
e 35 43
e 35 44
e 35 47
e 35 49
e 35 51
e 35 53
e 35 57
e 35 60
e 35 63
e 35 68
e 35 74
e 35 75
e 35 76
e 35 77
e 35 79
e 35 82
e 35 83
e 35 85
e 35 87
e 35 89
e 35 92
e 35 95
e 35 97
e 35 99
e 35 100
e 36 38
e 36 39
e 36 41
e 36 42
e 36 43
e 36 44
e 36 46
e 36 49
e 36 50
e 36 51
e 36 53
e 36 54
e 36 58
e 36 59
e 36 65
e 36 67
e 36 70
e 36 75
e 36 76
e 36 78
e 36 79
e 36 81
e 36 85
e 36 88
e 36 91
e 36 92
e 36 95
e 36 98
e 36 99
e 36 100
e 37 42
e 37 43
e 37 47
e 37 48
e 37 49
e 37 50
e 37 51
e 37 52
e 37 55
e 37 56
e 37 57
e 37 59
e 37 63
e 37 65
e 37 68
e 37 71
e 37 77
e 37 79
e 37 87
e 37 91
e 37 95
e 38 44
e 38 46
e 38 47
e 38 49
e 38 51
e 38 54
e 38 55
e 38 56
e 38 59
e 38 60
e 38 62
e 38 63
e 38 66
e 38 67
e 38 68
e 38 71
e 38 72
e 38 74
e 38 80
e 38 86
e 38 92
e 38 93
e 38 96
e 38 100
e 39 40
e 39 41
e 39 53
e 39 54
e 39 60
e 39 64
e 39 65
e 39 66
e 39 67
e 39 68
e 39 70
e 39 73
e 39 74
e 39 77
e 39 79
e 39 81
e 39 82
e 39 85
e 39 88
e 39 90
e 39 95
e 39 96
e 39 97
e 39 99
e 39 100
e 40 42
e 40 45
e 40 46
e 40 47
e 40 49
e 40 50
e 40 52
e 40 55
e 40 56
e 40 69
e 40 70
e 40 71
e 40 73
e 40 75
e 40 86
e 40 88
e 40 93
e 40 95
e 40 97
e 40 100
e 41 42
e 41 43
e 41 47
e 41 50
e 41 52
e 41 56
e 41 57
e 41 64
e 41 68
e 41 69
e 41 73
e 41 74
e 41 75
e 41 76
e 41 79
e 41 84
e 41 87
e 41 91
e 41 93
e 41 95
e 41 99
e 42 47
e 42 48
e 42 49
e 42 50
e 42 53
e 42 54
e 42 57
e 42 59
e 42 66
e 42 69
e 42 72
e 42 75
e 42 80
e 42 82
e 42 85
e 42 86
e 42 87
e 42 89
e 42 93
e 42 94
e 42 95
e 43 46
e 43 48
e 43 50
e 43 51
e 43 52
e 43 53
e 43 59
e 43 60
e 43 63
e 43 68
e 43 70
e 43 71
e 43 72
e 43 74
e 43 76
e 43 78
e 43 80
e 43 82
e 43 84
e 43 85
e 43 87
e 43 88
e 43 90
e 43 91
e 43 92
e 43 93
e 43 96
e 44 48
e 44 50
e 44 54
e 44 56
e 44 57
e 44 58
e 44 62
e 44 64
e 44 66
e 44 68
e 44 69
e 44 70
e 44 71
e 44 72
e 44 73
e 44 74
e 44 76
e 44 78
e 44 89
e 44 90
e 44 98
e 44 100
e 45 50
e 45 52
e 45 57
e 45 62
e 45 65
e 45 66
e 45 71
e 45 72
e 45 73
e 45 74
e 45 75
e 45 82
e 45 83
e 45 84
e 45 87
e 45 88
e 45 89
e 45 90
e 45 93
e 45 95
e 45 96
e 45 98
e 45 99
e 45 100
e 46 47
e 46 52
e 46 53
e 46 54
e 46 56
e 46 58
e 46 61
e 46 62
e 46 63
e 46 66
e 46 67
e 46 68
e 46 71
e 46 72
e 46 73
e 46 80
e 46 83
e 46 84
e 46 87
e 46 88
e 46 89
e 46 91
e 46 94
e 46 95
e 46 96
e 46 98
e 46 99
e 46 100
e 47 48
e 47 49
e 47 51
e 47 52
e 47 55
e 47 56
e 47 60
e 47 61
e 47 66
e 47 69
e 47 70
e 47 73
e 47 74
e 47 84
e 47 85
e 47 88
e 47 89
e 47 93
e 47 95
e 47 96
e 47 98
e 48 51
e 48 53
e 48 55
e 48 59
e 48 61
e 48 63
e 48 65
e 48 66
e 48 67
e 48 69
e 48 71
e 48 73
e 48 76
e 48 78
e 48 84
e 48 88
e 48 89
e 48 92
e 48 93
e 48 95
e 48 96
e 48 100
e 49 52
e 49 54
e 49 55
e 49 57
e 49 60
e 49 64
e 49 66
e 49 69
e 49 70
e 49 72
e 49 73
e 49 74
e 49 75
e 49 76
e 49 77
e 49 78
e 49 84
e 49 85
e 49 86
e 49 87
e 49 88
e 49 89
e 49 90
e 49 93
e 49 94
e 49 95
e 49 96
e 49 99
e 50 52
e 50 53
e 50 56
e 50 60
e 50 66
e 50 75
e 50 77
e 50 78
e 50 82
e 50 83
e 50 85
e 50 86
e 50 89
e 50 91
e 50 97
e 51 53
e 51 54
e 51 55
e 51 56
e 51 63
e 51 69
e 51 70
e 51 73
e 51 74
e 51 77
e 51 82
e 51 83
e 51 88
e 51 89
e 51 92
e 51 93
e 51 94
e 51 95
e 51 96
e 51 97
e 51 99
e 51 100
e 52 54
e 52 56
e 52 57
e 52 58
e 52 59
e 52 65
e 52 67
e 52 69
e 52 73
e 52 75
e 52 81
e 52 85
e 52 91
e 52 92
e 52 94
e 52 95
e 52 97
e 52 99
e 52 100
e 53 54
e 53 57
e 53 59
e 53 62
e 53 63
e 53 64
e 53 65
e 53 68
e 53 69
e 53 73
e 53 74
e 53 75
e 53 77
e 53 78
e 53 79
e 53 82
e 53 85
e 53 87
e 53 88
e 53 91
e 53 92
e 53 94
e 53 95
e 53 96
e 53 97
e 53 100
e 54 55
e 54 59
e 54 60
e 54 61
e 54 63
e 54 64
e 54 66
e 54 67
e 54 70
e 54 74
e 54 76
e 54 77
e 54 79
e 54 80
e 54 81
e 54 82
e 54 84
e 54 85
e 54 86
e 54 87
e 54 94
e 54 96
e 54 100
e 55 56
e 55 59
e 55 61
e 55 66
e 55 67
e 55 73
e 55 74
e 55 75
e 55 76
e 55 78
e 55 79
e 55 80
e 55 82
e 55 84
e 55 86
e 55 88
e 55 90
e 55 92
e 55 99
e 56 57
e 56 61
e 56 62
e 56 63
e 56 68
e 56 76
e 56 78
e 56 85
e 56 93
e 56 95
e 56 98
e 56 100
e 57 58
e 57 59
e 57 60
e 57 64
e 57 67
e 57 68
e 57 69
e 57 70
e 57 77
e 57 78
e 57 82
e 57 83
e 57 86
e 57 92
e 57 93
e 57 98
e 58 59
e 58 62
e 58 64
e 58 67
e 58 70
e 58 72
e 58 73
e 58 74
e 58 89
e 58 92
e 58 94
e 58 95
e 58 97
e 58 100
e 59 60
e 59 67
e 59 69
e 59 70
e 59 71
e 59 73
e 59 77
e 59 78
e 59 83
e 59 84
e 59 85
e 59 86
e 59 88
e 59 89
e 59 90
e 59 95
e 60 63
e 60 67
e 60 75
e 60 77
e 60 83
e 60 86
e 60 87
e 60 88
e 60 89
e 60 90
e 60 91
e 60 93
e 60 94
e 60 95
e 60 96
e 60 98
e 61 63
e 61 65
e 61 67
e 61 70
e 61 71
e 61 73
e 61 76
e 61 77
e 61 81
e 61 82
e 61 83
e 61 85
e 61 89
e 61 91
e 61 93
e 61 96
e 61 98
e 61 99
e 62 64
e 62 66
e 62 72
e 62 73
e 62 75
e 62 76
e 62 78
e 62 79
e 62 81
e 62 84
e 62 85
e 62 86
e 62 87
e 62 88
e 62 92
e 62 96
e 62 98
e 63 75
e 63 78
e 63 80
e 63 81
e 63 83
e 63 85
e 63 88
e 63 89
e 63 90
e 63 92
e 63 94
e 63 95
e 63 96
e 63 99
e 64 65
e 64 67
e 64 68
e 64 69
e 64 70
e 64 71
e 64 72
e 64 73
e 64 77
e 64 79
e 64 80
e 64 85
e 64 86
e 64 87
e 64 89
e 64 95
e 64 96
e 64 99
e 65 72
e 65 76
e 65 84
e 65 91
e 65 93
e 65 97
e 65 100
e 66 67
e 66 68
e 66 70
e 66 73
e 66 74
e 66 75
e 66 76
e 66 78
e 66 80
e 66 84
e 66 85
e 66 86
e 66 89
e 67 69
e 67 70
e 67 75
e 67 78
e 67 79
e 67 80
e 67 82
e 67 84
e 67 89
e 67 90
e 67 91
e 67 93
e 67 94
e 67 95
e 67 100
e 68 70
e 68 71
e 68 76
e 68 78
e 68 81
e 68 82
e 68 83
e 68 84
e 68 88
e 68 89
e 68 91
e 68 93
e 68 94
e 68 95
e 68 96
e 68 98
e 68 99
e 68 100
e 69 73
e 69 77
e 69 78
e 69 80
e 69 83
e 69 84
e 69 85
e 69 86
e 69 91
e 69 92
e 69 93
e 69 99
e 69 100
e 70 72
e 70 73
e 70 74
e 70 76
e 70 77
e 70 84
e 70 86
e 70 88
e 70 92
e 70 95
e 70 98
e 70 99
e 71 72
e 71 76
e 71 77
e 71 78
e 71 85
e 71 90
e 71 95
e 71 96
e 72 75
e 72 76
e 72 78
e 72 85
e 72 88
e 72 89
e 72 90
e 72 91
e 72 96
e 72 98
e 73 77
e 73 81
e 73 82
e 73 83
e 73 84
e 73 86
e 73 88
e 73 89
e 73 95
e 73 96
e 74 75
e 74 76
e 74 77
e 74 79
e 74 81
e 74 84
e 74 85
e 74 86
e 74 87
e 74 88
e 74 89
e 74 93
e 74 94
e 74 96
e 74 98
e 74 99
e 75 76
e 75 80
e 75 81
e 75 85
e 75 87
e 75 93
e 75 98
e 76 78
e 76 79
e 76 80
e 76 83
e 76 84
e 76 86
e 76 88
e 76 89
e 76 91
e 76 92
e 76 94
e 76 97
e 76 100
e 77 86
e 77 89
e 77 90
e 77 93
e 77 94
e 77 95
e 77 98
e 77 100
e 78 82
e 78 85
e 78 86
e 78 91
e 78 98
e 78 100
e 79 80
e 79 86
e 79 87
e 79 89
e 79 96
e 79 98
e 80 84
e 80 85
e 80 87
e 80 88
e 80 92
e 80 93
e 80 94
e 80 96
e 80 98
e 80 99
e 81 83
e 81 84
e 81 85
e 81 87
e 81 88
e 81 89
e 81 92
e 81 95
e 81 96
e 81 100
e 82 89
e 82 90
e 82 92
e 82 94
e 82 96
e 82 100
e 83 88
e 83 94
e 83 95
e 83 96
e 83 97
e 84 87
e 84 88
e 84 90
e 84 91
e 84 93
e 84 95
e 84 98
e 85 87
e 85 88
e 85 90
e 85 91
e 85 98
e 85 100
e 86 87
e 86 88
e 86 92
e 86 93
e 86 97
e 86 98
e 87 89
e 87 90
e 87 91
e 87 92
e 87 93
e 87 97
e 87 98
e 87 100
e 88 89
e 88 91
e 88 93
e 88 95
e 88 96
e 88 98
e 89 91
e 89 92
e 90 91
e 90 92
e 90 93
e 90 95
e 90 97
e 90 98
e 90 99
e 91 100
e 92 93
e 92 94
e 92 95
e 92 97
e 92 99
e 92 100
e 94 98
e 94 100
e 95 97
e 95 100
e 96 97
e 96 98
e 96 100
e 97 98
e 98 99
e 98 100